75
2 1 497
3 1 703
3 2 700
4 1 593
4 2 617
4 3 161
5 1 386
5 2 216
5 3 820
5 4 943
6 1 716
6 2 827
6 3 208
6 4 291
6 5 451
7 1 502
7 2 371
7 3 592
7 4 619
7 5 867
7 6 373
8 1 464
8 2 147
8 3 299
8 4 268
8 5 88
8 6 302
8 7 682
9 1 281
9 2 958
9 3 209
9 4 15
9 5 40
9 6 498
9 7 945
9 8 454
10 1 478
10 2 233
10 3 969
10 4 607
10 5 283
10 6 466
10 7 885
10 8 134
10 9 35
11 1 638
11 2 789
11 3 980
11 4 404
11 5 824
11 6 721
11 7 803
11 8 29
11 9 47
11 10 956
12 1 416
12 2 974
12 3 362
12 4 144
12 5 304
12 6 875
12 7 890
12 8 563
12 9 543
12 10 168
12 11 255
13 1 975
13 2 669
13 3 12
13 4 103
13 5 848
13 6 339
13 7 810
13 8 657
13 9 943
13 10 824
13 11 428
13 12 486
14 1 520
14 2 671
14 3 514
14 4 946
14 5 673
14 6 85
14 7 537
14 8 968
14 9 542
14 10 863
14 11 420
14 12 140
14 13 405
15 1 933
15 2 906
15 3 286
15 4 905
15 5 813
15 6 29
15 7 962
15 8 927
15 9 580
15 10 322
15 11 576
15 12 855
15 13 128
15 14 638
16 1 73
16 2 241
16 3 817
16 4 716
16 5 365
16 6 112
16 7 807
16 8 870
16 9 962
16 10 444
16 11 650
16 12 429
16 13 485
16 14 543
16 15 957
17 1 804
17 2 1000
17 3 333
17 4 212
17 5 323
17 6 387
17 7 824
17 8 36
17 9 196
17 10 145
17 11 236
17 12 477
17 13 249
17 14 373
17 15 564
17 16 143
18 1 308
18 2 818
18 3 560
18 4 240
18 5 354
18 6 232
18 7 406
18 8 834
18 9 830
18 10 432
18 11 569
18 12 900
18 13 739
18 14 791
18 15 600
18 16 979
18 17 394
19 1 83
19 2 877
19 3 510
19 4 965
19 5 873
19 6 547
19 7 147
19 8 194
19 9 905
19 10 170
19 11 631
19 12 905
19 13 166
19 14 819
19 15 38
19 16 200
19 17 578
19 18 645
20 1 458
20 2 447
20 3 502
20 4 150
20 5 436
20 6 470
20 7 501
20 8 679
20 9 732
20 10 539
20 11 48
20 12 895
20 13 210
20 14 61
20 15 125
20 16 212
20 17 945
20 18 89
20 19 903
21 1 473
21 2 839
21 3 33
21 4 944
21 5 357
21 6 325
21 7 204
21 8 612
21 9 270
21 10 981
21 11 57
21 12 648
21 13 736
21 14 103
21 15 285
21 16 82
21 17 525
21 18 572
21 19 117
21 20 936
22 1 34
22 2 571
22 3 467
22 4 412
22 5 677
22 6 965
22 7 809
22 8 488
22 9 273
22 10 424
22 11 900
22 12 138
22 13 701
22 14 593
22 15 741
22 16 598
22 17 319
22 18 883
22 19 390
22 20 378
22 21 901
23 1 687
23 2 526
23 3 965
23 4 99
23 5 110
23 6 875
23 7 396
23 8 681
23 9 505
23 10 880
23 11 152
23 12 50
23 13 399
23 14 259
23 15 70
23 16 797
23 17 617
23 18 307
23 19 193
23 20 290
23 21 665
23 22 88
24 1 776
24 2 565
24 3 712
24 4 891
24 5 869
24 6 2
24 7 703
24 8 573
24 9 177
24 10 559
24 11 449
24 12 682
24 13 141
24 14 555
24 15 743
24 16 467
24 17 424
24 18 268
24 19 832
24 20 181
24 21 247
24 22 836
24 23 790
25 1 280
25 2 269
25 3 234
25 4 635
25 5 418
25 6 950
25 7 312
25 8 239
25 9 350
25 10 584
25 11 161
25 12 348
25 13 135
25 14 457
25 15 308
25 16 289
25 17 259
25 18 797
25 19 491
25 20 168
25 21 561
25 22 491
25 23 17
25 24 633
26 1 93
26 2 728
26 3 963
26 4 519
26 5 286
26 6 28
26 7 720
26 8 934
26 9 57
26 10 346
26 11 634
26 12 612
26 13 735
26 14 187
26 15 744
26 16 590
26 17 931
26 18 928
26 19 882
26 20 536
26 21 737
26 22 788
26 23 626
26 24 280
26 25 877
27 1 134
27 2 872
27 3 386
27 4 692
27 5 67
27 6 15
27 7 800
27 8 91
27 9 486
27 10 6
27 11 928
27 12 837
27 13 50
27 14 784
27 15 677
27 16 808
27 17 763
27 18 834
27 19 296
27 20 108
27 21 87
27 22 876
27 23 76
27 24 149
27 25 804
27 26 946
28 1 224
28 2 100
28 3 50
28 4 362
28 5 485
28 6 316
28 7 221
28 8 335
28 9 317
28 10 629
28 11 688
28 12 231
28 13 693
28 14 641
28 15 519
28 16 729
28 17 853
28 18 383
28 19 640
28 20 393
28 21 547
28 22 975
28 23 133
28 24 396
28 25 623
28 26 175
28 27 613
29 1 415
29 2 993
29 3 927
29 4 870
29 5 933
29 6 306
29 7 301
29 8 220
29 9 473
29 10 908
29 11 454
29 12 261
29 13 506
29 14 875
29 15 481
29 16 970
29 17 29
29 18 217
29 19 295
29 20 329
29 21 86
29 22 545
29 23 909
29 24 932
29 25 726
29 26 786
29 27 753
29 28 257
30 1 141
30 2 748
30 3 898
30 4 544
30 5 15
30 6 610
30 7 327
30 8 476
30 9 306
30 10 653
30 11 619
30 12 96
30 13 996
30 14 787
30 15 688
30 16 659
30 17 531
30 18 713
30 19 442
30 20 361
30 21 986
30 22 763
30 23 506
30 24 124
30 25 190
30 26 749
30 27 373
30 28 898
30 29 310
31 1 381
31 2 624
31 3 150
31 4 675
31 5 73
31 6 89
31 7 503
31 8 809
31 9 202
31 10 78
31 11 697
31 12 955
31 13 140
31 14 69
31 15 330
31 16 578
31 17 618
31 18 466
31 19 50
31 20 609
31 21 243
31 22 325
31 23 168
31 24 426
31 25 242
31 26 163
31 27 854
31 28 835
31 29 733
31 30 231
32 1 378
32 2 549
32 3 98
32 4 887
32 5 75
32 6 923
32 7 283
32 8 944
32 9 989
32 10 941
32 11 75
32 12 111
32 13 365
32 14 716
32 15 685
32 16 932
32 17 459
32 18 13
32 19 191
32 20 820
32 21 333
32 22 526
32 23 678
32 24 93
32 25 591
32 26 945
32 27 118
32 28 119
32 29 238
32 30 35
32 31 318
33 1 970
33 2 112
33 3 256
33 4 509
33 5 189
33 6 577
33 7 663
33 8 374
33 9 573
33 10 410
33 11 96
33 12 604
33 13 86
33 14 95
33 15 913
33 16 272
33 17 287
33 18 935
33 19 766
33 20 621
33 21 895
33 22 703
33 23 182
33 24 58
33 25 386
33 26 754
33 27 949
33 28 432
33 29 726
33 30 798
33 31 553
33 32 912
34 1 643
34 2 772
34 3 183
34 4 27
34 5 55
34 6 506
34 7 51
34 8 687
34 9 533
34 10 114
34 11 34
34 12 258
34 13 926
34 14 323
34 15 880
34 16 988
34 17 540
34 18 156
34 19 508
34 20 375
34 21 482
34 22 677
34 23 125
34 24 279
34 25 59
34 26 733
34 27 183
34 28 841
34 29 360
34 30 890
34 31 431
34 32 539
34 33 394
35 1 993
35 2 554
35 3 934
35 4 423
35 5 57
35 6 158
35 7 936
35 8 356
35 9 416
35 10 114
35 11 637
35 12 346
35 13 333
35 14 499
35 15 52
35 16 959
35 17 500
35 18 650
35 19 310
35 20 546
35 21 133
35 22 79
35 23 131
35 24 708
35 25 594
35 26 258
35 27 646
35 28 960
35 29 734
35 30 522
35 31 870
35 32 996
35 33 400
35 34 595
36 1 417
36 2 172
36 3 796
36 4 498
36 5 240
36 6 86
36 7 636
36 8 836
36 9 501
36 10 389
36 11 290
36 12 728
36 13 848
36 14 201
36 15 353
36 16 866
36 17 697
36 18 762
36 19 335
36 20 480
36 21 324
36 22 203
36 23 417
36 24 191
36 25 821
36 26 553
36 27 447
36 28 22
36 29 258
36 30 375
36 31 648
36 32 67
36 33 592
36 34 653
36 35 694
37 1 559
37 2 158
37 3 804
37 4 125
37 5 363
37 6 799
37 7 952
37 8 270
37 9 133
37 10 952
37 11 848
37 12 141
37 13 635
37 14 259
37 15 43
37 16 968
37 17 4
37 18 519
37 19 219
37 20 330
37 21 926
37 22 50
37 23 788
37 24 73
37 25 1000
37 26 764
37 27 149
37 28 445
37 29 795
37 30 543
37 31 224
37 32 157
37 33 338
37 34 715
37 35 160
37 36 297
38 1 58
38 2 704
38 3 319
38 4 292
38 5 419
38 6 169
38 7 933
38 8 364
38 9 762
38 10 196
38 11 72
38 12 166
38 13 100
38 14 364
38 15 769
38 16 545
38 17 875
38 18 752
38 19 469
38 20 614
38 21 930
38 22 191
38 23 152
38 24 587
38 25 199
38 26 347
38 27 777
38 28 56
38 29 867
38 30 435
38 31 912
38 32 664
38 33 10
38 34 641
38 35 692
38 36 350
38 37 962
39 1 560
39 2 476
39 3 622
39 4 916
39 5 221
39 6 833
39 7 546
39 8 518
39 9 520
39 10 732
39 11 379
39 12 441
39 13 117
39 14 81
39 15 62
39 16 222
39 17 117
39 18 970
39 19 989
39 20 829
39 21 110
39 22 270
39 23 761
39 24 749
39 25 375
39 26 445
39 27 863
39 28 572
39 29 321
39 30 725
39 31 442
39 32 339
39 33 474
39 34 13
39 35 653
39 36 160
39 37 590
39 38 143
40 1 238
40 2 844
40 3 696
40 4 386
40 5 296
40 6 557
40 7 134
40 8 326
40 9 431
40 10 753
40 11 921
40 12 472
40 13 716
40 14 893
40 15 994
40 16 262
40 17 171
40 18 686
40 19 153
40 20 312
40 21 687
40 22 885
40 23 770
40 24 52
40 25 604
40 26 860
40 27 582
40 28 125
40 29 357
40 30 478
40 31 132
40 32 183
40 33 917
40 34 30
40 35 676
40 36 942
40 37 931
40 38 208
40 39 624
41 1 652
41 2 787
41 3 400
41 4 821
41 5 337
41 6 15
41 7 787
41 8 254
41 9 439
41 10 743
41 11 12
41 12 981
41 13 762
41 14 123
41 15 417
41 16 362
41 17 818
41 18 939
41 19 101
41 20 904
41 21 975
41 22 834
41 23 314
41 24 280
41 25 28
41 26 832
41 27 924
41 28 356
41 29 68
41 30 123
41 31 972
41 32 271
41 33 787
41 34 277
41 35 569
41 36 900
41 37 590
41 38 345
41 39 632
41 40 262
42 1 149
42 2 529
42 3 224
42 4 694
42 5 269
42 6 372
42 7 485
42 8 850
42 9 213
42 10 651
42 11 431
42 12 843
42 13 834
42 14 409
42 15 96
42 16 106
42 17 182
42 18 842
42 19 804
42 20 771
42 21 429
42 22 950
42 23 545
42 24 654
42 25 266
42 26 167
42 27 726
42 28 138
42 29 133
42 30 406
42 31 798
42 32 542
42 33 931
42 34 199
42 35 511
42 36 784
42 37 69
42 38 892
42 39 797
42 40 394
42 41 1
43 1 71
43 2 547
43 3 217
43 4 614
43 5 669
43 6 771
43 7 346
43 8 103
43 9 442
43 10 906
43 11 127
43 12 211
43 13 753
43 14 273
43 15 276
43 16 964
43 17 867
43 18 931
43 19 446
43 20 273
43 21 177
43 22 440
43 23 805
43 24 48
43 25 81
43 26 288
43 27 430
43 28 683
43 29 420
43 30 972
43 31 598
43 32 53
43 33 696
43 34 3
43 35 286
43 36 401
43 37 491
43 38 334
43 39 439
43 40 741
43 41 797
43 42 957
44 1 834
44 2 657
44 3 175
44 4 686
44 5 596
44 6 629
44 7 963
44 8 367
44 9 695
44 10 255
44 11 942
44 12 29
44 13 972
44 14 18
44 15 187
44 16 729
44 17 529
44 18 456
44 19 10
44 20 81
44 21 537
44 22 876
44 23 212
44 24 744
44 25 790
44 26 982
44 27 72
44 28 363
44 29 551
44 30 63
44 31 772
44 32 706
44 33 533
44 34 596
44 35 187
44 36 25
44 37 64
44 38 411
44 39 251
44 40 871
44 41 748
44 42 793
44 43 321
45 1 881
45 2 213
45 3 143
45 4 244
45 5 292
45 6 728
45 7 85
45 8 58
45 9 171
45 10 790
45 11 146
45 12 531
45 13 635
45 14 972
45 15 383
45 16 965
45 17 547
45 18 609
45 19 591
45 20 966
45 21 457
45 22 135
45 23 974
45 24 121
45 25 779
45 26 145
45 27 396
45 28 768
45 29 468
45 30 491
45 31 604
45 32 304
45 33 690
45 34 972
45 35 43
45 36 727
45 37 256
45 38 454
45 39 149
45 40 339
45 41 802
45 42 470
45 43 240
45 44 821
46 1 990
46 2 618
46 3 391
46 4 104
46 5 217
46 6 335
46 7 926
46 8 739
46 9 595
46 10 842
46 11 386
46 12 701
46 13 211
46 14 358
46 15 132
46 16 819
46 17 899
46 18 863
46 19 934
46 20 281
46 21 58
46 22 3
46 23 187
46 24 891
46 25 249
46 26 947
46 27 643
46 28 36
46 29 574
46 30 256
46 31 763
46 32 536
46 33 110
46 34 81
46 35 96
46 36 842
46 37 879
46 38 272
46 39 285
46 40 248
46 41 125
46 42 188
46 43 609
46 44 75
46 45 890
47 1 301
47 2 168
47 3 15
47 4 153
47 5 889
47 6 93
47 7 73
47 8 29
47 9 399
47 10 421
47 11 801
47 12 782
47 13 290
47 14 506
47 15 768
47 16 661
47 17 424
47 18 86
47 19 447
47 20 808
47 21 316
47 22 412
47 23 976
47 24 746
47 25 821
47 26 29
47 27 473
47 28 195
47 29 65
47 30 130
47 31 845
47 32 225
47 33 687
47 34 576
47 35 297
47 36 1
47 37 712
47 38 985
47 39 962
47 40 615
47 41 624
47 42 505
47 43 363
47 44 776
47 45 441
47 46 155
48 1 628
48 2 338
48 3 880
48 4 871
48 5 676
48 6 942
48 7 909
48 8 615
48 9 784
48 10 267
48 11 267
48 12 197
48 13 252
48 14 635
48 15 752
48 16 679
48 17 99
48 18 996
48 19 370
48 20 492
48 21 973
48 22 522
48 23 623
48 24 642
48 25 727
48 26 334
48 27 544
48 28 638
48 29 354
48 30 99
48 31 263
48 32 18
48 33 209
48 34 519
48 35 189
48 36 606
48 37 724
48 38 949
48 39 113
48 40 872
48 41 50
48 42 657
48 43 813
48 44 33
48 45 313
48 46 481
48 47 955
49 1 759
49 2 444
49 3 881
49 4 383
49 5 638
49 6 746
49 7 641
49 8 90
49 9 749
49 10 669
49 11 735
49 12 457
49 13 993
49 14 457
49 15 93
49 16 556
49 17 58
49 18 636
49 19 284
49 20 605
49 21 133
49 22 505
49 23 371
49 24 873
49 25 774
49 26 100
49 27 434
49 28 611
49 29 522
49 30 301
49 31 513
49 32 827
49 33 181
49 34 31
49 35 992
49 36 963
49 37 862
49 38 748
49 39 654
49 40 794
49 41 181
49 42 646
49 43 935
49 44 127
49 45 249
49 46 291
49 47 105
49 48 90
50 1 311
50 2 599
50 3 408
50 4 108
50 5 184
50 6 374
50 7 392
50 8 860
50 9 862
50 10 834
50 11 944
50 12 794
50 13 918
50 14 812
50 15 781
50 16 10
50 17 590
50 18 596
50 19 403
50 20 586
50 21 660
50 22 567
50 23 763
50 24 657
50 25 533
50 26 104
50 27 143
50 28 812
50 29 120
50 30 437
50 31 21
50 32 631
50 33 417
50 34 382
50 35 898
50 36 428
50 37 908
50 38 162
50 39 364
50 40 505
50 41 164
50 42 751
50 43 895
50 44 505
50 45 277
50 46 427
50 47 138
50 48 657
50 49 999
51 1 482
51 2 686
51 3 997
51 4 716
51 5 282
51 6 604
51 7 872
51 8 649
51 9 108
51 10 199
51 11 298
51 12 885
51 13 479
51 14 796
51 15 981
51 16 146
51 17 898
51 18 520
51 19 82
51 20 403
51 21 205
51 22 343
51 23 25
51 24 726
51 25 988
51 26 891
51 27 930
51 28 988
51 29 735
51 30 773
51 31 470
51 32 321
51 33 676
51 34 435
51 35 241
51 36 429
51 37 495
51 38 784
51 39 940
51 40 155
51 41 372
51 42 101
51 43 929
51 44 923
51 45 26
51 46 984
51 47 999
51 48 935
51 49 715
51 50 332
52 1 401
52 2 251
52 3 375
52 4 616
52 5 458
52 6 138
52 7 346
52 8 956
52 9 328
52 10 301
52 11 375
52 12 741
52 13 728
52 14 898
52 15 837
52 16 803
52 17 695
52 18 442
52 19 356
52 20 405
52 21 695
52 22 991
52 23 291
52 24 536
52 25 638
52 26 243
52 27 749
52 28 273
52 29 640
52 30 415
52 31 92
52 32 214
52 33 565
52 34 43
52 35 112
52 36 236
52 37 694
52 38 70
52 39 322
52 40 74
52 41 65
52 42 865
52 43 59
52 44 492
52 45 319
52 46 35
52 47 330
52 48 32
52 49 99
52 50 179
52 51 603
53 1 602
53 2 337
53 3 941
53 4 974
53 5 414
53 6 980
53 7 14
53 8 410
53 9 11
53 10 984
53 11 947
53 12 8
53 13 402
53 14 632
53 15 915
53 16 456
53 17 550
53 18 502
53 19 804
53 20 143
53 21 712
53 22 641
53 23 252
53 24 605
53 25 406
53 26 771
53 27 529
53 28 256
53 29 982
53 30 587
53 31 371
53 32 587
53 33 68
53 34 467
53 35 165
53 36 272
53 37 395
53 38 161
53 39 95
53 40 893
53 41 740
53 42 265
53 43 146
53 44 192
53 45 16
53 46 570
53 47 78
53 48 77
53 49 732
53 50 570
53 51 760
53 52 793
54 1 358
54 2 726
54 3 494
54 4 971
54 5 323
54 6 284
54 7 200
54 8 482
54 9 666
54 10 717
54 11 591
54 12 303
54 13 592
54 14 113
54 15 728
54 16 812
54 17 425
54 18 69
54 19 573
54 20 236
54 21 730
54 22 906
54 23 422
54 24 158
54 25 591
54 26 286
54 27 348
54 28 307
54 29 315
54 30 525
54 31 32
54 32 50
54 33 48
54 34 186
54 35 611
54 36 284
54 37 70
54 38 759
54 39 425
54 40 675
54 41 777
54 42 505
54 43 782
54 44 427
54 45 582
54 46 764
54 47 134
54 48 28
54 49 264
54 50 307
54 51 284
54 52 663
54 53 503
55 1 547
55 2 501
55 3 231
55 4 613
55 5 663
55 6 679
55 7 170
55 8 721
55 9 976
55 10 917
55 11 510
55 12 898
55 13 119
55 14 143
55 15 872
55 16 2
55 17 833
55 18 666
55 19 329
55 20 224
55 21 455
55 22 791
55 23 340
55 24 605
55 25 401
55 26 858
55 27 189
55 28 18
55 29 227
55 30 353
55 31 613
55 32 373
55 33 77
55 34 963
55 35 585
55 36 45
55 37 583
55 38 694
55 39 415
55 40 791
55 41 534
55 42 448
55 43 625
55 44 638
55 45 883
55 46 680
55 47 294
55 48 522
55 49 908
55 50 4
55 51 801
55 52 657
55 53 590
55 54 899
56 1 167
56 2 912
56 3 527
56 4 872
56 5 434
56 6 672
56 7 952
56 8 722
56 9 775
56 10 970
56 11 667
56 12 772
56 13 269
56 14 861
56 15 966
56 16 214
56 17 546
56 18 318
56 19 852
56 20 924
56 21 729
56 22 139
56 23 131
56 24 397
56 25 373
56 26 620
56 27 182
56 28 668
56 29 340
56 30 7
56 31 483
56 32 353
56 33 800
56 34 971
56 35 202
56 36 184
56 37 804
56 38 618
56 39 418
56 40 679
56 41 114
56 42 775
56 43 801
56 44 807
56 45 238
56 46 576
56 47 797
56 48 794
56 49 854
56 50 581
56 51 652
56 52 440
56 53 74
56 54 948
56 55 836
57 1 582
57 2 228
57 3 402
57 4 679
57 5 568
57 6 118
57 7 7
57 8 288
57 9 894
57 10 935
57 11 1
57 12 67
57 13 362
57 14 267
57 15 188
57 16 399
57 17 394
57 18 906
57 19 651
57 20 304
57 21 391
57 22 388
57 23 778
57 24 158
57 25 248
57 26 448
57 27 869
57 28 757
57 29 422
57 30 857
57 31 817
57 32 330
57 33 167
57 34 300
57 35 620
57 36 285
57 37 824
57 38 262
57 39 732
57 40 773
57 41 295
57 42 102
57 43 498
57 44 385
57 45 69
57 46 757
57 47 187
57 48 538
57 49 446
57 50 771
57 51 373
57 52 378
57 53 825
57 54 584
57 55 659
57 56 259
58 1 185
58 2 286
58 3 18
58 4 123
58 5 153
58 6 254
58 7 233
58 8 329
58 9 261
58 10 391
58 11 205
58 12 773
58 13 301
58 14 885
58 15 125
58 16 349
58 17 885
58 18 695
58 19 770
58 20 62
58 21 594
58 22 201
58 23 422
58 24 382
58 25 357
58 26 697
58 27 160
58 28 627
58 29 918
58 30 695
58 31 548
58 32 472
58 33 540
58 34 207
58 35 943
58 36 868
58 37 309
58 38 450
58 39 956
58 40 966
58 41 681
58 42 688
58 43 797
58 44 841
58 45 137
58 46 115
58 47 531
58 48 104
58 49 84
58 50 5
58 51 469
58 52 688
58 53 382
58 54 549
58 55 231
58 56 410
58 57 121
59 1 79
59 2 207
59 3 97
59 4 520
59 5 621
59 6 438
59 7 357
59 8 101
59 9 959
59 10 164
59 11 307
59 12 489
59 13 671
59 14 539
59 15 824
59 16 483
59 17 800
59 18 278
59 19 138
59 20 274
59 21 132
59 22 226
59 23 831
59 24 934
59 25 249
59 26 119
59 27 559
59 28 568
59 29 810
59 30 21
59 31 67
59 32 737
59 33 747
59 34 214
59 35 299
59 36 50
59 37 324
59 38 521
59 39 699
59 40 46
59 41 238
59 42 341
59 43 980
59 44 745
59 45 214
59 46 871
59 47 966
59 48 492
59 49 785
59 50 300
59 51 295
59 52 991
59 53 193
59 54 951
59 55 61
59 56 631
59 57 603
59 58 648
60 1 717
60 2 504
60 3 78
60 4 793
60 5 791
60 6 740
60 7 997
60 8 919
60 9 245
60 10 30
60 11 866
60 12 719
60 13 533
60 14 471
60 15 709
60 16 805
60 17 684
60 18 112
60 19 479
60 20 700
60 21 967
60 22 836
60 23 184
60 24 819
60 25 961
60 26 437
60 27 667
60 28 439
60 29 95
60 30 52
60 31 234
60 32 922
60 33 973
60 34 293
60 35 567
60 36 675
60 37 49
60 38 733
60 39 621
60 40 630
60 41 476
60 42 617
60 43 431
60 44 212
60 45 182
60 46 920
60 47 46
60 48 89
60 49 506
60 50 145
60 51 2
60 52 169
60 53 942
60 54 472
60 55 51
60 56 627
60 57 830
60 58 158
60 59 65
61 1 953
61 2 34
61 3 294
61 4 328
61 5 273
61 6 945
61 7 321
61 8 642
61 9 457
61 10 367
61 11 915
61 12 942
61 13 753
61 14 98
61 15 129
61 16 363
61 17 974
61 18 284
61 19 921
61 20 957
61 21 458
61 22 851
61 23 444
61 24 483
61 25 343
61 26 583
61 27 726
61 28 984
61 29 881
61 30 675
61 31 629
61 32 71
61 33 809
61 34 810
61 35 195
61 36 126
61 37 33
61 38 86
61 39 786
61 40 847
61 41 114
61 42 357
61 43 615
61 44 842
61 45 329
61 46 808
61 47 583
61 48 196
61 49 299
61 50 824
61 51 511
61 52 221
61 53 441
61 54 476
61 55 187
61 56 820
61 57 744
61 58 184
61 59 816
61 60 157
62 1 633
62 2 377
62 3 789
62 4 573
62 5 915
62 6 219
62 7 877
62 8 949
62 9 63
62 10 715
62 11 230
62 12 940
62 13 347
62 14 755
62 15 824
62 16 796
62 17 558
62 18 928
62 19 221
62 20 681
62 21 339
62 22 165
62 23 774
62 24 713
62 25 364
62 26 522
62 27 663
62 28 138
62 29 881
62 30 677
62 31 385
62 32 352
62 33 367
62 34 956
62 35 569
62 36 698
62 37 296
62 38 951
62 39 266
62 40 236
62 41 284
62 42 50
62 43 73
62 44 922
62 45 106
62 46 446
62 47 724
62 48 899
62 49 336
62 50 436
62 51 45
62 52 824
62 53 628
62 54 80
62 55 365
62 56 440
62 57 879
62 58 541
62 59 804
62 60 821
62 61 782
63 1 662
63 2 37
63 3 988
63 4 523
63 5 606
63 6 423
63 7 837
63 8 628
63 9 619
63 10 632
63 11 570
63 12 212
63 13 237
63 14 138
63 15 69
63 16 127
63 17 502
63 18 221
63 19 901
63 20 783
63 21 998
63 22 345
63 23 911
63 24 617
63 25 784
63 26 47
63 27 571
63 28 495
63 29 532
63 30 711
63 31 545
63 32 521
63 33 437
63 34 863
63 35 153
63 36 34
63 37 722
63 38 862
63 39 680
63 40 772
63 41 795
63 42 114
63 43 713
63 44 483
63 45 384
63 46 189
63 47 963
63 48 460
63 49 206
63 50 473
63 51 239
63 52 775
63 53 997
63 54 234
63 55 545
63 56 207
63 57 963
63 58 221
63 59 468
63 60 112
63 61 969
63 62 190
64 1 307
64 2 758
64 3 30
64 4 973
64 5 638
64 6 854
64 7 934
64 8 981
64 9 247
64 10 300
64 11 39
64 12 255
64 13 635
64 14 392
64 15 589
64 16 458
64 17 524
64 18 2
64 19 87
64 20 427
64 21 63
64 22 479
64 23 566
64 24 176
64 25 672
64 26 275
64 27 807
64 28 456
64 29 716
64 30 548
64 31 832
64 32 283
64 33 458
64 34 259
64 35 230
64 36 31
64 37 964
64 38 491
64 39 135
64 40 995
64 41 919
64 42 29
64 43 929
64 44 533
64 45 544
64 46 416
64 47 975
64 48 178
64 49 42
64 50 26
64 51 954
64 52 346
64 53 274
64 54 877
64 55 619
64 56 517
64 57 614
64 58 211
64 59 41
64 60 20
64 61 157
64 62 76
64 63 644
65 1 797
65 2 732
65 3 437
65 4 619
65 5 782
65 6 415
65 7 538
65 8 518
65 9 767
65 10 470
65 11 552
65 12 94
65 13 890
65 14 922
65 15 753
65 16 718
65 17 113
65 18 203
65 19 715
65 20 920
65 21 338
65 22 548
65 23 303
65 24 882
65 25 20
65 26 103
65 27 444
65 28 955
65 29 412
65 30 917
65 31 950
65 32 493
65 33 837
65 34 280
65 35 879
65 36 603
65 37 584
65 38 72
65 39 201
65 40 600
65 41 341
65 42 95
65 43 770
65 44 244
65 45 265
65 46 551
65 47 847
65 48 80
65 49 92
65 50 129
65 51 693
65 52 440
65 53 896
65 54 376
65 55 972
65 56 925
65 57 391
65 58 308
65 59 979
65 60 436
65 61 895
65 62 444
65 63 937
65 64 71
66 1 336
66 2 698
66 3 875
66 4 443
66 5 942
66 6 839
66 7 836
66 8 260
66 9 471
66 10 447
66 11 421
66 12 202
66 13 126
66 14 548
66 15 923
66 16 439
66 17 536
66 18 401
66 19 552
66 20 339
66 21 420
66 22 85
66 23 511
66 24 190
66 25 817
66 26 871
66 27 922
66 28 2
66 29 22
66 30 531
66 31 853
66 32 701
66 33 588
66 34 61
66 35 956
66 36 286
66 37 37
66 38 479
66 39 477
66 40 765
66 41 154
66 42 661
66 43 615
66 44 935
66 45 998
66 46 394
66 47 517
66 48 322
66 49 993
66 50 95
66 51 389
66 52 844
66 53 751
66 54 880
66 55 493
66 56 29
66 57 490
66 58 931
66 59 17
66 60 829
66 61 176
66 62 354
66 63 86
66 64 371
66 65 777
67 1 954
67 2 419
67 3 196
67 4 255
67 5 641
67 6 366
67 7 805
67 8 163
67 9 393
67 10 360
67 11 587
67 12 999
67 13 966
67 14 6
67 15 434
67 16 667
67 17 812
67 18 335
67 19 615
67 20 708
67 21 865
67 22 964
67 23 727
67 24 143
67 25 165
67 26 171
67 27 783
67 28 90
67 29 501
67 30 137
67 31 764
67 32 510
67 33 503
67 34 858
67 35 187
67 36 724
67 37 896
67 38 487
67 39 521
67 40 575
67 41 844
67 42 99
67 43 506
67 44 366
67 45 569
67 46 144
67 47 692
67 48 951
67 49 709
67 50 85
67 51 777
67 52 609
67 53 82
67 54 978
67 55 539
67 56 580
67 57 811
67 58 993
67 59 454
67 60 390
67 61 1
67 62 142
67 63 286
67 64 349
67 65 403
67 66 702
68 1 252
68 2 841
68 3 765
68 4 95
68 5 540
68 6 302
68 7 797
68 8 236
68 9 279
68 10 991
68 11 966
68 12 586
68 13 254
68 14 956
68 15 531
68 16 431
68 17 949
68 18 811
68 19 539
68 20 124
68 21 721
68 22 206
68 23 701
68 24 318
68 25 184
68 26 116
68 27 357
68 28 411
68 29 105
68 30 337
68 31 956
68 32 739
68 33 396
68 34 804
68 35 749
68 36 249
68 37 3
68 38 626
68 39 646
68 40 671
68 41 763
68 42 949
68 43 410
68 44 426
68 45 552
68 46 44
68 47 641
68 48 790
68 49 280
68 50 238
68 51 241
68 52 64
68 53 558
68 54 561
68 55 297
68 56 743
68 57 101
68 58 261
68 59 581
68 60 953
68 61 173
68 62 538
68 63 94
68 64 651
68 65 666
68 66 144
68 67 364
69 1 343
69 2 597
69 3 726
69 4 425
69 5 330
69 6 114
69 7 30
69 8 675
69 9 722
69 10 319
69 11 360
69 12 52
69 13 742
69 14 473
69 15 909
69 16 222
69 17 57
69 18 397
69 19 848
69 20 717
69 21 155
69 22 148
69 23 296
69 24 218
69 25 11
69 26 267
69 27 560
69 28 419
69 29 544
69 30 184
69 31 256
69 32 172
69 33 636
69 34 588
69 35 214
69 36 844
69 37 696
69 38 820
69 39 273
69 40 87
69 41 35
69 42 628
69 43 361
69 44 458
69 45 553
69 46 824
69 47 478
69 48 577
69 49 493
69 50 680
69 51 467
69 52 768
69 53 266
69 54 116
69 55 708
69 56 383
69 57 592
69 58 10
69 59 91
69 60 227
69 61 481
69 62 176
69 63 928
69 64 807
69 65 785
69 66 850
69 67 660
69 68 314
70 1 341
70 2 733
70 3 492
70 4 556
70 5 952
70 6 916
70 7 348
70 8 267
70 9 713
70 10 249
70 11 753
70 12 491
70 13 429
70 14 971
70 15 545
70 16 977
70 17 140
70 18 675
70 19 523
70 20 788
70 21 999
70 22 911
70 23 429
70 24 543
70 25 10
70 26 3
70 27 878
70 28 14
70 29 373
70 30 897
70 31 129
70 32 987
70 33 454
70 34 97
70 35 812
70 36 608
70 37 624
70 38 19
70 39 998
70 40 629
70 41 463
70 42 314
70 43 240
70 44 272
70 45 110
70 46 992
70 47 467
70 48 623
70 49 727
70 50 402
70 51 846
70 52 777
70 53 362
70 54 390
70 55 12
70 56 151
70 57 698
70 58 196
70 59 279
70 60 672
70 61 445
70 62 915
70 63 711
70 64 778
70 65 379
70 66 583
70 67 198
70 68 411
70 69 291
71 1 201
71 2 894
71 3 470
71 4 329
71 5 270
71 6 665
71 7 383
71 8 510
71 9 651
71 10 407
71 11 768
71 12 394
71 13 819
71 14 385
71 15 357
71 16 167
71 17 815
71 18 953
71 19 625
71 20 662
71 21 484
71 22 292
71 23 834
71 24 35
71 25 794
71 26 47
71 27 402
71 28 140
71 29 319
71 30 985
71 31 816
71 32 820
71 33 188
71 34 60
71 35 521
71 36 650
71 37 81
71 38 509
71 39 471
71 40 860
71 41 76
71 42 862
71 43 288
71 44 455
71 45 417
71 46 988
71 47 224
71 48 792
71 49 527
71 50 567
71 51 363
71 52 98
71 53 824
71 54 602
71 55 751
71 56 702
71 57 154
71 58 870
71 59 403
71 60 974
71 61 918
71 62 413
71 63 377
71 64 232
71 65 197
71 66 484
71 67 352
71 68 114
71 69 459
71 70 538
72 1 399
72 2 175
72 3 641
72 4 178
72 5 903
72 6 705
72 7 691
72 8 168
72 9 803
72 10 34
72 11 877
72 12 902
72 13 615
72 14 816
72 15 439
72 16 942
72 17 906
72 18 54
72 19 385
72 20 526
72 21 187
72 22 863
72 23 514
72 24 157
72 25 393
72 26 232
72 27 968
72 28 660
72 29 400
72 30 284
72 31 891
72 32 337
72 33 279
72 34 792
72 35 5
72 36 86
72 37 211
72 38 946
72 39 172
72 40 642
72 41 271
72 42 640
72 43 252
72 44 276
72 45 513
72 46 767
72 47 839
72 48 627
72 49 45
72 50 287
72 51 671
72 52 512
72 53 51
72 54 66
72 55 794
72 56 854
72 57 929
72 58 744
72 59 796
72 60 111
72 61 4
72 62 133
72 63 672
72 64 837
72 65 501
72 66 897
72 67 136
72 68 234
72 69 718
72 70 525
72 71 456
73 1 853
73 2 593
73 3 843
73 4 111
73 5 801
73 6 108
73 7 577
73 8 862
73 9 90
73 10 211
73 11 710
73 12 22
73 13 7
73 14 217
73 15 648
73 16 21
73 17 640
73 18 856
73 19 442
73 20 560
73 21 923
73 22 433
73 23 574
73 24 937
73 25 850
73 26 765
73 27 58
73 28 347
73 29 711
73 30 867
73 31 859
73 32 237
73 33 512
73 34 552
73 35 890
73 36 14
73 37 921
73 38 396
73 39 80
73 40 699
73 41 404
73 42 770
73 43 283
73 44 311
73 45 398
73 46 859
73 47 13
73 48 76
73 49 678
73 50 878
73 51 276
73 52 758
73 53 277
73 54 917
73 55 990
73 56 693
73 57 597
73 58 112
73 59 755
73 60 325
73 61 587
73 62 74
73 63 972
73 64 336
73 65 118
73 66 778
73 67 570
73 68 652
73 69 937
73 70 352
73 71 842
73 72 927
74 1 821
74 2 447
74 3 139
74 4 298
74 5 816
74 6 140
74 7 435
74 8 481
74 9 691
74 10 562
74 11 12
74 12 534
74 13 980
74 14 684
74 15 769
74 16 846
74 17 244
74 18 958
74 19 912
74 20 163
74 21 438
74 22 754
74 23 20
74 24 736
74 25 499
74 26 785
74 27 753
74 28 880
74 29 543
74 30 960
74 31 703
74 32 543
74 33 301
74 34 353
74 35 126
74 36 665
74 37 668
74 38 238
74 39 588
74 40 434
74 41 493
74 42 373
74 43 753
74 44 712
74 45 994
74 46 982
74 47 830
74 48 237
74 49 427
74 50 119
74 51 428
74 52 391
74 53 882
74 54 356
74 55 827
74 56 609
74 57 336
74 58 997
74 59 915
74 60 750
74 61 354
74 62 244
74 63 297
74 64 989
74 65 42
74 66 20
74 67 328
74 68 49
74 69 164
74 70 379
74 71 79
74 72 840
74 73 516
